##TITLE=Ibuprofen_1H_20231008_001
##JCAMP-DX=6.00
##DATA TYPE= NMR SPECTRUM
##DATA CLASS= XYDATA
##ORIGIN=
##OWNER=Nanalysis
##firstX=0
##lastX=2.37452
##.SHIFT REFERENCE=INTERNAL, Chloroform-d, 1, 13.169131847268417
##.OBSERVE NUCLEUS=1H
##.OBSERVE FREQUENCY=60.12396860678224
##.SOLVENT=Chloroform-d
##XUNITS=HZ
##YUNITS=ARBITRARY UNITS
##XFACTOR=0.21051745721487355
##YFACTOR=0.000014322730723490752
##DELTAX=0.2105174572148769
##FIRSTX=0
##FIRSTY=-5.564877229569788
##LASTX=862.0689872949072
##MAXY=30757.83000908087
##MINY=-36.39756827953818
##NPOINTS=4096
##XYDATA=(X++(Y..Y))
4095c88535O96438M85414L26477K63143K11779J14593r246j02608j64312j94412j83625j66264j49947q4179l5555
4080F19161o8596j48805k00515j65070j8417J69532K40662J56174L3308j9758p786n5298j54950j45782j5817J06700
4064C24743J49336Q7875p6131k30948k67764k29211j90398r2589R2644K74984L37507K44691O3780q9445j52174
4049B46900j52555j32479j18973q0077K8353J93660K76619J56843n3526j53508j27329o7460n4098p5560l9120L8307
4033a14003M5548J4978L7638P4501N6830o975n0566p3114j29466j77318j55489n4320Q8232J31249Q1967J26071
4017a04237K67109L28648K27027J00569N0424J1376j08877k64960l07559k28882j18158J2978J16074R9386k6589
4002E4329j54039k19593k01901j16249J6009J71921K52108J90350J00284R9764J36312J16092L3068n3667j01362
3987C23426j13012j35681j38322q2945j4454L3681N2572M7265J7823m1309j06525j45410j08729J7159J52107J92651
3971d9703J29010O4464P2323J53709K19189J83655M2058j29574k14938k24680k27655k15750j98135j54768j8117
3956e68912J50026J53705L933j19718j90485k01625q8616R6568K05760K16198K15879J99194R1331p3595j54890
3941f5247j02479K2381Q2362J6359n7624q6281j23635j26973k1766J28963K21708K00595O8943o3611r7000n2632
3925e5937l6039n0639n6601r2453j49656j29250Q092J73682K46086J99500Q7321n8366k18963k80765j59738K6080
3909e47646R7045L1867n6338q7300q4375m2237J17903K99185L11324K12415J48651J02962K3127m0220q1530j61667
3893B43166k05112j14263J3549N5278L2522j8196p0052o9061J3955J29088J96515J77160Q7013k1577q8984p3870
3877B87131J5503O1888j3597p7355p9391p3722n9448o6026q2112p4882p8097r2816p6605m1394r781M4343P0482O4249
3859b81630R8953K03754L11378K93841J35644j1140j9642M2383L4661o4966j66575k07533k01052j42753j7013J27009
3843A35319K03032J81666R9627O1598R4352J26158J62597K45937L15876K92089K08226J31990R1739Q0193M7855M3576
3827B521830J49464L01538M10324N15709P26663J019847J259612J336713J190302Q22976K87703l24626q50082
3814I367973j159520j212789j047372p52381m31764k23338j90375k93686m06599m03377k55390n3545M0741j0478
3800B968100p7162r6817q6369l5J93954M14933N85863P32699R31514J168333J304001J242695J034599P13571K29706
3785A1259585l55391q74054j178743j236379j132577r78668q62690q12236p58875o56071n18284l74288k74499k47442
3771I99388k17851r5196Q5167K21956K69200K44119K18799K28897J84460N2181r7034k10646k72515k58252j87386
3756A165287j21855p4028l3399m0872n5552r743M9089O8230M7490l80J1354J61027L57436L91210K18573O1958M4213
3739B240038O5527J8457j21586k57110k72311j62507j8896M1066j490l7233J2673L7925O841L1131R1670J11288M0644
3722A826127q4181j24249l7769N1444Q7927J24061J38366Q3962L0564K6229L9632O1925J15514J95101K41153K04625
3706B980431J24411J13267J80488J89574J21643O5254l223j31700k15072j80531q1601O9578K20620K70806J96454
3691C920399M6656m0428K1843J08681Q8913j546o0998r496J28573J88866J46540J13752Q6604Q7483J65041K17926
3675E208809J67331J23887J31380J59943K36638L82244N73792O96614O66082N37927L86906K60543K12193K82953
3661A0027242M03541M39771L52009J63522n8477j92874j91801j53699k77379n49531o69201m56534n8379K40730
3647I018940K97290J77813J5917m4968L8602J91514L10135L37413L18361K58443J53723J01019J62134K67172L27064
3632A1930572L63136M55874N96895P32785Q34646Q51813P44212N31923K93691Q8547n5261j49430k27003k79497
3618A6712903l18884l37362k85890j27243J68827M85011O19976N52206M38094L59775K59699K02578K90293M35832
3604A9455815M78678L94392K79827K23684K42537L04702L68784M61837N84704O64743P00900P60282Q72396R97916
3590B6791197J057735J004100Q91513Q16140Q08330Q04769Q03906Q43864R01288R51007J019413J048009R56936
3577C8698207Q71274R42507J084632J172083J229853J318364J432945J545009J623883J624611J625061J721013
3565E4889442J859466J998169K175036K403100K641431K807918K921949L062257L212710L340468L516983L798245
3553H8627174M126851M461787M817342N246976N822868O560001P365371Q207976R171516J0291446J1563231J2980857
3541A79243396J4553300J6435168J8743876K1537278K4908969K8871293L3365160L8457708M4350100N1219505
3531D71685753N9198611O8515559P9505810R2448710J07239053J22759138J36409883J44252906J41439143J22949509
3521A546404075Q5373663K9889389l5740861r8504551j44912444j66910918j64873545j45736844j18431089r0127859
3511F96429016o4815037m3853973k7144065j3899019l078227O365376J5263918K4160908L3266676M2638230N2742241
3500G18076044O4561665P9357879R8415015J22425803J50542183J79437104K02277850K07964254J83169003
3491B006226800J19374786K1882061q7617254j80623923k36957363k52736336k37220115k04477372j66629609
3482G81221675j31166310j01445535p8309584o1292384m9170157m0486351l4058062k9095393k5075492k1690881
3472B09431526j8836997j6481357j4551967j2901180j1373869r972941q819281p905397p145934o505212n886476
3461H9050915n262736m689312m169527l723073l394956l131796k852073k550736k246135k020588j880000j738145
3449E1391838j605297j473146j326017j220023j187046j179923j077430q62141o03823k94866q527J19057J18009
3436D0790665R1649J14495K37026M26145N74792O56546Q07500J137809J510741J704415J727099J805927K051971
3423E3636780K368764K680268K967082L266402L586187L880983M274316M940423N872910O956790Q097115R285340
3411A11813360J0560765J2011539J3762057J5908743J8546189K1646002K4906886K7696192K8978676K7193302
3401C13023711K0696527R181288n029763j7802048k5866783k8674648k7761824k4922585k1339129j7684848j4354944
3390A59464954j1541224r259140p417296n924464m727381l796949l065496k349752j517911o48472J27702P95211
3378A10139782J416501K007250K531019L046533L695239M542908N501983O504329P655562R141669J1012076J3157044
3366A80351895J5571811J8287170K1166578K4141204K7443629L1490181L6793961M3909798N3309247O5098824
3356E17564298P8565665R1473961R9118927R3852384O7581717J9310333l8527016q5868263j09635504j10499209
3346F22937293r7222748p8781718o0787185m5546747l3482478k4262235j7427227j2511209q794557n539045k307550
3335B36274594J148572M871925Q702821J2521367J6298438K0044516K3774899K7562449L1662981L6739337M3777964
3324D63379863N3577309O6349255Q1344028R6199955J05863583J01822116P4406800K1092167m4903765r9943203
3314I19188108j27791623j28851973j13539093r2441684p2049408n4981949m1690559l1838060k4826136j9860727
3304B11316896j6085703j2915745j0160577p875684o267070n458785n254590n303057n353204n223237m883549
3293A26535695m590908m617334m961523n456751n857903n913662n547272m847009m029666l302011k694433k172973
3281G2544250j689310j129785m30282L13513R92073J650591K402231L303766M211557M912877N371059N574613
3269I8027153N347910M568885L484963K550187J981967J516244O42459r00544k858020m659306n782272o078095
3257I7841531n749646n122188m504966m019617l601481l094013k389185j548596p50486o9395N22226J085521J766213
3244G0365918K611799L516374M397223N166652N653467N784620N681489N520867N372324N157008M658951L593227
3232A27479919J797337n32341k893312m812961n933317o123506n681349n079080m608042m312654m061786l713770
3220H1525138l250711k735607k215517j707555j146409m29698L85929J093769J592115J990641K404863K837118
3208H0344076L262610L651993L957956M207006M333851M084605L207611J516003r17033l549402n590574o523036
3196I1985666o437156n869025n354710n095788m963394m768036m433164l902935l250477k598567j950326j315557
3184D2046531p57731l32098l3160K24965N27547Q45890J078448J213744J470815K021627K675392L078927K929997
3171E6990894K116882Q57697m54789j532386k343446k958710l355690l505455l464261l257370k871992k378291
3159C3843083j923407j590486j395350j276208j122123r10271o82872m69149k62288p4254J00110L08022N69864
3146B5114671Q92520J246423J512556J616625J621498J530009J172018N27527j16310n35542o92705o43561n16317
3133C2729412m09533l02399j64645o8201o7377j03090j32953j49847j46545r9868P845J05304J46119K17750L81127
3118C1943099N78998P68900R90749J195258J275977J297046J380658J527099J644907J699220J784169K007915
3106D8093995K349583K737101L139607L565345L994594M387997M820212N427208O180184O948521P735368Q662857
3094A08042572R801699J1146848J2668197J4365169J6294234J8509967K1106712K4372618K8819027L4896566
3084C00023609M2686602N1885637O1576580O9550388P2352307O6449144M9796085K3158920r319572m1032109
3074F87127591o5375331p8365929p9781778p2478448o0615658m7773811l6116821k6584171j9313172j3955056
3064A86767416j0025260p091040m745499k685043p01336J313049L392210N601338P995895J0700848J4008290
3053B04530868J8189735K3266693K8945352L4463548L8320447L8657086L4172455K4887427J2362616j097417
3043D56698810j3619303k4355391l3097827l9517786m2954419m2956848l9868758l4694973k8690858k2987477
3033A33955170j8263894j4683183j2056085j0089519q572024p400495o470410n664892m937658m289179l724857
3022C7802974l222765k749821k344627k021910j733871j430263j151273r47740q09332p36354p32771q13577j014234
3009A8094436j265482j387854j312977j155879j088823j104746j017920p87691n55063l82757k60384k01357k28404
2996G345099l05072l40958l15810k82399k77903l33084m18260m57077m23222l54141k83711j95300j00287n2902o6203
2981C138770j03318j40388j91267k32587k20585j55634r7484r2897j07560o2506K3473Q4804P6219r517q7832o0237
2965A761454L1058M9278j6944o4634o968N7234J6130m9296o0071m3743m4288q5693j79192k57696k01992k3330J26745
2948A008052J49779R2131O4541P0132J5616j12332k53569l02881j72602M3249J80265K21508K33091K32747K05175
2933A674902J50793R1202J0393j09543k30934l09930k86073j26779R1281K33953K31271J11385P299p35J5655l8987
2917A515153j60146k48626k37704j91150j73190j30879m6559M4645J04322P7909k1228r0241l1558J13370K16116
2902G40234K33102J52704j8077j80245k41726j80132n9185M0714J38680K05523J66079O0603j6402m6226p0988j22503
2886H02155j56591j36088j13091r2426R822J86070K99042K64185J54810P2503K1856l931R976K1417P737m0043j01760
2869A205643j36712k09382k70092k01104n9735K5925M2457L3828L2865J9652k7830n8191m7156p416K0925j0274p0895
2852B82508r4262k1794J29047K52801K89813K06455P39j72951j78030p4433L9213J57193K58456K94218L00210K78460
2836A947643J42209p8039k04520j66234p0325J324O3604J25890J14361J9270o2613r2123p9929n8851j733J27336
2820A727270K34951K58422K06448Q4067m0238r0684o0428q765J5124K0016L1460J11542K51323K96496J98302O1446
2804C296752k2759n201Q3072J75555K32197K23415K00954K21659K28807J57481Q7792J02217J62463K39967L70844
2789E755215N17207O09679O70706P56226Q49884Q75218Q19825P13889N25815L00305J72565J33852J27592K09570
2775A3037548M03277O43220Q46151R92356J094459J147208J260123J564872J997384K385464K672545K986058L464654
2762C4495319M073927M775664N625521O634661P720453Q614949Q827853P888767N568580K040841j969001n486038
2750H8811496p778914q612117q175791o890590n292093l830108k668607j763718j042687m06885K18518P98589
2738D3367093J294742J790717K374535L014184L606589M173037M839047N718798O903377Q406241J0274540J2632610
2726A08395510J5543175J8862852K2092241K4180332K3602905J9076317J0597017k68196j1042034j9371312k3981223
2715A87687584k5001945k3390948k0193057j6368413j2709289r612400p118383n165110l714466k687001j901795
2704E9824777j165069m38640K45680R24451J661272K461251L263821M074461N034843O362682Q128390J0258149
2692A00636068J2802734J5812857J8902568K1020348K0699090J6792092R257695o05160j0585053j8405729k2707386
2681A63620124k3540361k1910163j8968598j5577910j2346640r646426p485436n732616m342892l313912k627503
2670C8127667k198232j879055j561386j246709r66782o59157k62146K17980P53069J324728J877306K404620L006386
2657C8938289L720259M480016N074747N173401M421542K621459K0651k793071n185773o692416p183806o819051
2645C5776247n916432m827859l829800l058228k493140k055556j657335j253238r27879p67340p79418r22830j004612
2632F282580q30860n27205l48750l49211m08296m31852m42984m24127l13169j95943j78392j92230j31591l1047P440
2617A484363m7954j16648q6538J629K1596k9447r6665j62677k50330l30396l38387k57612q8873R4893J48321p927
2601f2652k37894k90319j34659L6989J27029J55056J32100R8754J08360J51621J60672R5312J7548l4992q8363j31407
2585A03155j09399n7843j4234K053m9150j59020k78483k82816j17372J28318K71272K11880R3030N9655M3146m0413
2569a96221j13751j30513j48559j47062n6846M2581Q0672R2986P1770L9258O0649J01188R3003N3195Q842m6110r5426
2552b90344r2093j5119J6702q6372j97448k26130j80184o867J90663J97336N5722k0915o764m7275j64910k34731
2536a108729j84753m9748O3192J26131J98156K24526J21994m2071j31598j15218o5428n5020j37184k47677k51586
2521a655013j42783J1177J34352J75477J40260M7262o347J2239J6487K3545Q0565J40261J88388K16589J67696P0395
2505c79450n3187k04542k55312j41313L5545K06615K93342K41200J62987J24974M1918j32422k76767k93901k20143
2490h50456r0482P1351J92766K11618J65733J19934N3299j03505k99073m10309m01485k66352m9179R7509J22307
2475a436324J52312K27397K78716K09003J421j61167j33147J2358J29204J33500K3251q3918q9748k2603O2881J01864
2459e95000M3873l7006l1253l8464j45207k12177j51056p3684n5901m6577k702M7751J38869K76837L32247K31609
2443c17841N8308j00415j78962j51890r3434k8727M6168O1289l6041j53166j27705J1381P6800L9809K3013O1428
2427h09985Q8619O7363L98r0874j57249j68725j00192O0275J95340K27698J99920J66957J86648K32364K51026K57359
2411F06942K31195J18066l6160j29217j19743o3563j7261o286n2311j31365j60281j24308p9695o5394r7176j38188
2395b64745j49954j48848j50991j42961j29141p3936P8750K36624K74233K21662J81102J66684J28796J18718J54246
2380E00239R9260m9781j34292j26264j32428j65464j42998o8271j1249P412L7016P7737N9539k4595j61658l52319
2364e88116m57967l38107j26534L4250J81775K52966J86904P3474k2290q0316p9369l8809J9388P5014J03169J17747
2348f86821J03089Q0954J01295P3169p6224k35178k50706j26947M3782J90820K43278K07096J04322n9099j78506
2333d65676j79216j18883n5368N487L6006j5640r0632n7331L2898M0525k5463p1260p8140p0379k4153Q9917J70089
2316h77219J21820J420j02087j05706l6439k9787p1016m4071Q3191J98212J50136j9718j52510j59392q3335m2737
2300a169238o2187l5899J26973L46447M17881K27380p8897k73206l15801k69704j64526Q159J93018K14215M8244
2285g87141j30871j81458q0124M5896R7536R4393R5084J14007J15327J22088J49776J52342J08981L4265o0011j64285
2269b74195k34724k65423k79332k24002m3041J80133K79898K23331R2036n2775j27073n2015R4203J55358J29500
2254c98121R4116L0600n1099r8926j06552q4899k8003M7064O9133K0520j0148K1898P9006O4019r4271k70119k85718
2237a001500j34274M5723J18046P6054N08l1426m0772n8760k2602J19506K90646L15792J77652K9404l2452j9564O637
2220a61382L1952M3746j5135r9722j07732l7663J4922K5224J5794k9952q5033r4296n2601o449k0297q6731j28984
2203g94339j50312j56433j16523p5754m9512J8194J06028J29779J16299J34984J46464J04428m083j03415j01211
2188g95406l6340P9312K24441K62486J34947p1345k04804j73578j8623J24317J36150P4286N1666N4698Q0499J35530
2172E8236J46736J00084N3588J4058k5595o9549j33628k20173k96054l09420k24041l6105J54003K11752J67147
2157d08961J31701J64131K10749J55566J0863j36870k06019j53705p8656l5321m833k0557p8401r4115l3699M1490
2141e36637J02921K06660L42459M08506L49732K23261J18248J05395J55806J24306l3297j73566j40336L0434J46710
2126A430602P9221j51454l71076l71803j74147L6247J42518J49218J00928L4542j5644r5136k36782l08084k24082
2111B5068m0589J60839K82666K95616K79251K67959K01840O4072p2794p2959J09091K92167L19030K36681J55805
2096B503743J13959Q1133O9324J42462K57000K94700K74262K25991O9885j79389l55741l62556k83489k49237k75741
2081B326306l17276l77864l90466l08052j79012p4253k5091J1883K0022m5413j34751j39273n0044L5245J02521
2066D54482J86502K46728K65383L09385L26028J84268j0832o7421P132N0158J9999M9126J33971J03767p5804k54449
2050A928423k62290j21605j5570n766k8921o4811j03994j48760j84498j55968j03063r6149j27959j61012j42483
2035B05574q0861p4458j66161k71202k34762n3091R4967R9070M1826N3172P8089L9616N820O587K1426O3059J22522
2018d8807J53544J05830J8685l540L4764L6559l1475j24733j53912r3808J4283J06218J03357k095j26847j69507
2002a81484j45314q7806Q85M7297Q744m7656m6276J2642R2869J32367R9681P2270Q7087J04582Q6979j8846j39522
1985G8499j27997R571J42022J40259K4160l9693L8775J18209Q2179L8681M6479M0342M9268P1934K3059k7817M019
1968G11949K2241n8945j42093j13262r266K1421r4560k51972l24216k86832k03919j29888k6529P0658J30404K30532
1952d54277L52242L83523K75686J19731k282q1535p5569K0877J26689K02172K57053K12857O0039p7681j21393j31724
1936A066408j68278j63399q3528k9794n0173o2449q444J58366L61540L87919K13109L2438l6691n4673o9481p8418
1920A414452r2750j05166r3010n1093J6966J12937J94240K40956K79072K74567J95761J15011P4192J6986o3518
1905B529603j30608j56287j25920r2824j30494j57729p9186J6372Q5910J71619K32011K30146J84999R8251j3616
1890B662247j00665j02089m102J23548J79117J80220J91178K15569K56277K98653K48185N6913j15040j24274n1580
1875C914157L5936J58285K56189K67825K10288R5870k6784p7551m8380M9101J63300K12052K28311K50333K29479
1860E918411J86890J54045Q3544k6622r5804j33135k01817k67980k35576j05316L1284J33718K25609L21370L81158
1845F369779L75617L41401L07181K57057K31762K78071L33976L26534K47994Q7945q9303j40338k3852J50908L04432
1830I359164M10025M27070L89842L53875K99761K22226J46887R2124J07683J99122K86709L03663K54377K34039
1816A3086567L60777N75868O50964N29566L84377L20957L05000K77628K25441K18145L02517L95879M15119M15800
1802A8464605M89579N85025O17595N94876N55989N61101O61891Q40189J066118J237903J222578J080829R68547
1789B8946825R07321R05434J038578J297223J628322J987759K275408K397040K403076K425721K586380K928934
1777E1728021L354069L829678M400467N014015N687040O545425P631835Q862204J0128758J1359954J2476093
1766A31017559J3207875J2971269J1097584P538577L232876n32910l058207m515216n339478n615890n129485l787747
1754A51086807j844792J47900J504599J838647J358151O63009L29442P02773J839835L548977N627596Q054952
1742A74857896J0776991J3605387J6508177J9548671K2536169K4943514K6359931K7164007K8560515L1810355
1732C96671613L7564240M5942054N6992660P0759724Q6801736J03624958J17994656J24643634J17628481R3620443
1722A252244199N5626530J3294161k1553867m0669449m2381435l0182119r950437J1340225K6753521L0190386
1712A244711715J6476197j6137409o1533453j05814500j34845466j42337270j31374882j10067857q6184045o4503858
1702D08389172m6942561l3560137k3606243j6535898j2270338j0513044j0541078j2069042j5271028j8953354
1692B08126449k0539291j8974226j5396723j1265687p369133m049217j472184J94585P79980L54329o46107j573809
1680A28168966j763899q90966P99951K756803M270388M675112L896890K505917R44939j138446m489939q941693
1668A30794023j3036502j5223229j5118253j3521682j1492670r645025q035090o521011n118166l957813l139981
1657B5984601k673250k366773k016877j674661j432264j273551j210923j192557j114647r52652p57577o20702n80192
1644H117975n72557n53872m72280l27734k38839k53265l13896l81357m38396m13363k56899p1863r977p5767j48043
1629C589867j66459j41838p7745j8449j4584o1567j19348j89500k64886k97601k59182k19810k07920j46996l0579
1614A373403J5439p2151j82487k15189j38647k9P8363K8783l1276L0899J12467R6626R470q1449j21455j42182j19129
1597F41456P610R5548M6827o731L3105Q6515N7140n9312j82405k29446k31007k18009j88261j51705j21478r5164
1581e15317j7372R3521J80938K06619K01503J87100J07531r109n3770M286N8670M926j18668k17126k16882r5799
1565a98949O5331J27860M4359p0460r8505n8220m3204o9155n1552L9792J10957Q0124k0415p8098m0464J0092k7448
1548b77955j31639j70501p8475Q4606J89266J51175K5635m4605m6365o9256o0126K4371Q8947N3559p2247j52310
1532d85920j08431q46J01021J31379O7859n1708k05842l43583l26106j14693J26483K56294K41747J55941R1559N7358
1516d07488M4615L0589o3210k08563k60518j93589j00679n6968m3079j0173K4563N8238R2084Q9069O8796P5808O5185
1499g95320K123m3390K228Q2891P2108l0444j24048j63385j44554m9628P2006J53561K12539K38212J75802N0002
1483b89297l6914j9374L3494K0696r5857k47722k71133j43332j5023J2652l0087o1295j7134J06716K37056K59329
1467e57225J41541j6158j03229p9272P974J03633J48746Q9819k4388j04242j48769j83901j80912j04569P114P8800
1451i25038J03616O9169m0054j55054j72121p2250P2059J20359K9886r2503j42305j06077l7945J2397J0741n0211
1435a375331p6923m8487n7693r8652r5494p570J13105J52530P7436o1989j76205j77546o5580N1240P3379K1837k2667
1418a774610n7603q3922l0836M3737J0387n8896j9232R8236J57321J18346R3283J84716K74385K28577J35115R7603
1402e83393N3645l5472q3462o2961n6898j26241j68355n2729J76162L50236L98040L87127L71571K84685O7419j12895
1386H06479j07377J222Q5011J17609J36083J11102m746j09902r9077k8417q3296k84932l86025l04092j72794p2091
1370c95243j566J06197K51915K98694J94346M0613n9041p5504n089O1817J4084r1816j55120j25053L1739K35020
1354C25993L66446L76668K61445J39860J75895L22103L87224L28556K67390K46073J48882q7901l32650m36993m09674
1339B079317l35318k99868l04738k94235k16837p5473J0910k1205p8156o7666m1642n4024l5418L5759L1461r6499
1323B36368j99786j82039p9755N5657J51288J53332J07387N2319J4593O4832J22818N6186o1294j21188j29878j10864
1307A29976p7570k7106L4508O2400R656p3315p5846l3444n7399j53444k76229l41504l03497k24244r7389N2192R8137
1290a354118L7492k1789o0355q1430p2913o5090n1390N3028J98890K25329J12252k2728q4491o9507k5579l83m3364
1273a326146q3969k2828Q4866J17477K6325q2965o5680O9557J90860K06233J02023m0621j41814j75116j35824n8899
1257a336521l915K1595Q383m9203q4175j7527J25198J72788N8825q3091j28729o7450N2217J43832J69125J78346
1241h40302J63568P2320n7689j29879j52423k07001k74542k68466j45687K3607J59396K31238K46085K00050Q1518
1226h98207n3009r2040k3739j595j03266k23511k52375j83713j08545p7385j4178J24688K90343M12849M21367L21832
1210d60484J90620O5847R363k706r1310k19055k90633l06146k79598k17348j02608M8649J80300K55529K42152J60692
1194h16736N5792j9921Q911J18602J37578O426j24281j12673k81R9380J33195Q2119j8613j17392j86703k39993
1178i94590k51743j51289J0468J18099J54095J48529J10198L8382n2685j07982m3176J01300J52655P8079O647j464
1162f84477O062j4024m6993o8036l9817j4666o7091j48028j74916j27732n7861p453L4630J19024K06341J70149L2320
1145h82568n9964k7190L4442p817p9582k7125O3638L3324q1966j82833j78423n5470N3217N8746L5184R6799J90005
1128a017583J52193j3158j38675j66164j54025j07869l5696K7934M1123L5572P0251R5473J16784J32806O1176o3109
1112i62967j07147p4167n8967k2050Q5303J59963Q8928q0668k24142k43280j01315J51673L35440K98057R4140r0185
1096g51384j12061N701R7412O5808j2205n0177m8549k2828q826n9585j19820r3612p542P0363J34313K09020K47690
1079d56282J90036O8209m2404n5301J861J334n7493r5353q0157l3265L2572J07003J08962J8638j06829k52792l39228
1062i90489k76265j50556r2746o4150P536Q4721J11222P1902K5226O9496J99163K79767K41455J44381m296k00592
1046e44225l38439l40691k57180j40889M6320K49086K91006J54776L0614M2567J13323J15765l480k15282l48870
1031a145599k30205L8299K44395K83109J67410J7888n4033k4805M3652N9446K6999K233l103o641N571M1582P2497
1014d61305Q6183Q8416N7679q279q8973j76925k05824j09325J2753O4447R6431J55377J72810J17816Q4763O1039
998e2917n1130k12157l10841l14812k61261j85270k5496K13033L62121L18384J11366j35905l05478l28421j62529
983a341313J05020K67131K22496R0359m127n4017j01578j31500j08858l3296N0113N8469J8534j6738k5766N409L2912
966i66750L8990Q4846J85176K84662K89500J30561j27516l10888k93037j34472L1319J28681J30725L9919p5196q4748
950f48228L9419K00085K38431J05273o0984j06651m5457O1374K14814K94009J58376p8115k07519j76789p2844J6406
934f8400P3166J28582J27814K4955p6882q2095n2351o3505o3674l4274j5300o595j3061j2583L3180R4389J18190
917A11556J31514J69442J98693J99777J94281J66709J17588R3861J14696J04899k0657j86394k15552q2585M3897
902A141725M8685k4277j31979j81623p9652O5433Q7560O758n758Q0945J67675K02164J91896J54967O2542r4240
886A692821j67834l2630J83917K82511K30203J25842N4832Q799K2065J19507J83930J38970J17021J57577J72724
871C290255J50058Q3662K2061N3256J58766K29086J68658K4197l1240L0187O3189j4641q4837o139J47498K04185
855D488201J75736J74826J90540R9132q7459j96829j49238m5445Q407M7941J16817K12952K67734K31113K00046
840E734474K51823K77821K22529J81249J91293K02674K21815K65577K65654J89070J12393J11783J70401L06523
826H705079N13538O33354O26522N95587N61625N01245M37792M06440M10655M05505L54546L20412L60264M06213
812A5238777M35128N47753P22950Q19334P66140O46088N59791N41666N63783N72511O30490Q36493J111591J321286
798B5313781J466162J563980J568016J491434J454669J513906J662785J875909K040469K140176K321377K657825
786D7070489L033213L344795L644633M013135M473665N051436N719777O442634P258883Q219236R311334J0488141
774A18071371J1776103J3264659J5014356J7038556J9365027K1985731K4851552K7976720L1359519L4781888
764C35485482L7815741L9758739L9444090L5434588K6598604J2880796m109870k1269655l5277553m4089302m7443979
753C75227681m6453621m2751724l7726023l2358139k7340063k2986771j9316386j6300009j3863192j1864072
743A04267681j0208839q870013p815801o947774o175642n518176m990781m529546m091593l681335l313978k951473
731C5172730k533255k148232j933323j869471j812338j671939j513326j413010j372964j334636j255271j187572
719A5127393j157807j030264p89084o18094o29276p12280p29261p21374p28636p27737p24558o96391n70370l55626
705D936635j83071j66361k90637m61140n55117m54939k10026K360Q9306Q5294L3802n5859j79002k50657j97330o0772
689B082486L8600Q759j15945k52098l09538k49435j34821m7101l2253q4168j24577j01863p8673p9172k6943Q1459
673E74717J43191N9738j29332k65848k87812k10671o2277O1648P8654K4876j7911k1457P268j7731j35408k28258
657d26613k34135j84276j47498j24264p1537m003N2419P9777R6355J14465Q6587K8835j254j4269m7487r4178r9098
640i90174o2694k0278O0571J48730J42380O0173J9353K9924N311o2370r4470p6343r6181j57489j62802q7579J6956
623a326982R8393J11013J06831J47001J61341Q4772k8505j03739j00408k8590K7093m4000k04774k97963k55174
608a653691j66396r5549j5404J33120L09446L43851K05819M4505p9160j46352q5449L2734Q5405Q6014Q3687P5726
592h41694L6264l0476j24782k17701k09526q5190N6234J31223J07295O8359Q2957Q4706K2829l1145j6487J2527j0085
575i64692n5838r0986j00202r2571q2990n2018O303N2801J8121o0432r0568n2765J4042P8374R7784M2928K319J4388
557a316002k7248j33800j85924j83546j85004j70999r4272N4694J91028K48486K47439K56453L09460L21932J85005
542d82298p6100k99810m03597l81768k62189j26572k9461L6842J07900J38764O4327m1857o1234L1792J44988J75684
526a464589J55466J25756L9763p8730j63764j53328l4241N4634j9679j61719k18115j94637j42938n1181R6213K45183
510a965906L00166K49127J59889Q6187P6050J08740N5687o9546j24691j15174j48454k28609k17410o8265N0128Q0889
494a771192J06061J52156K02564J93098O3055j13126j87290j77210j71277j48194n6366M7957K7458j38533k66672
479b237511j85789L2436K04893K06774M0757j50642k08122j05700J10838K85607K54292R5657l0326q6424j44065
464a917325j87164j41302k7010P7200J31055J41421Q6099o603k0583N6239J19929Q6601l6209j45682j43873o2518
448a989725J5214Q9477J52458J44188N9026p3078j62842j31321k0620O9940Q2339N7032L1524j4445p8041j37958
432a906832j51576q9233K050P2152R6180P7675J05260J70974J51361O0813k3102q3080q1175m5290m8419n3528O84
415a745086P1856M7334q1636j92420k23688j81487j09102p4149n2867J9838J23085J98135K03058J16826J5694j2080
399a876689L3246Q7769P3887J9653K2208R2023J22206P5215L7919J0131n7810r6199q2862j01702j30107j28888r4791
382a994791n067R5772J38217J33629J14031O2489j3295o6584o0269l9342p3505j13833j09921j12771p4754N9692
366b060302J84709K47990K83582K45351N6959j69009k47031j95070j39038r8048p732J26378J95558J25812m209p6069
350a530169j16830j50496j24585o5715k5100j9281K4052J93490L57130L61782K28890O0177m0886o2048q1303j05885
334a096777r9312o0654k1633K0632P5135J04634Q4018K6591O900L5401P4940R4098M7088o2307j21529q3651m8653
317a025079o6287r2564n1665N6687R4019P190j09682j70956j46612o3365j8780k1548K5007J00574J58074K30588
301a094399L07199K81815J15604r6144k31888k27418j41194m7265L1872R1461J50181J70777J16004M2366m543k2630
285e58202K0051P9711N2116p8560k11347k22116r5009O2241J57249J60473J06372K1336p7569j26787p9910J5843
269g74108R0508R2615L2160j9961n8775j15941j38833o5178L2813M0335L2319Q7224N6176p3737j33277r2820j7624
252a026104L5129J6765j4528N5253J74338K04851J12567j7468n1185K1600P2476N9953K2506j2386K401J07691K34959
235a182K23181P2037n3594j19426j65511j48142j18377k15433m16479n02362l06945P5912L81593M74803M25076
220c94849L18287K01060Q3211k4774j03272j35574j07911p0075n7660m1978k1510M7740J95515K86627K12819N2505
204D40161r0170j80911k24170k28058j55028R39J20395J25068M3835m6104o6674k7749K3432M7800j296p7736j17822
187d14088r9370l9082O164l313p4294j47233j19527j0988P9347J54149K62739L44659L04461J54092J6709O660J03456
170E24541J68035J47858Q0090l5655j67659k64943k98354k60583j83326q8349L022L0665N2689J71394K85249K73225
154D37899J76201M6875j11828j99704j41196N034J11910R5210l9250j58756r8791Q2684K12515K72845L03724K36404
138A231776P3119m8538j03337j54064j51793p1837l401L7089P2554Q0517L1564m3352o2695p2136j38305j74322r6398
121D06441M4848J28138R1389k3619j63747k54391k02377n1582O9277J24252J48624J80108K13222K03329J81191
106A095103J70818J11240J522j01035j58840j57267q3697L18J7355L917J9014M1374L7480N2495R6156J03884L1128
89A280965q6795j52073j01629K7657J40018J50024M7832j14726k14311j69588n9284j9265n7870m4548M8804J37334
73H12545J76526J47364R4664Q5335Q5748N3461J4626j661K855R215j5850k6585N1221J83601K53536J81124M8444
56B156169k9315k6212l56J8765N8222J37309K03499J31680o1868k15036k37780j90030j43158o9952N3051J56795
40A941783J54015O1323j9519o5209j17832j50156p7646R0905J56884N1570m1093k0703Q0681J63660J21911K4582K003
23B357159M7938N1634L1857O9936J28086J04578m4701j98741j93173o1023J1622o0096r8438j057Q2947L9742l6749
6B231521k3154M1982Q6619J83770M00235P04153
0C625126
##END=